La137 H1370
1.0
   3.6800000000000002    0.0000000000000000    0.0000000000000000
   0.0000000000000000    3.6800000000000002    0.0000000000000000
   0.0000000000000000    0.0000000000000000  504.1600000000000250
La H
137 1370
direct
   0.0000000000000000    0.0000000000000000    0.0000000000000000 La
   0.0000000000000000    0.0000000000000000    0.0072992700729927 La
   0.0000000000000000    0.0000000000000000    0.0145985401459854 La
   0.0000000000000000    0.0000000000000000    0.0218978102189781 La
   0.0000000000000000    0.0000000000000000    0.0291970802919708 La
   0.0000000000000000    0.0000000000000000    0.0364963503649635 La
   0.0000000000000000    0.0000000000000000    0.0437956204379562 La
   0.0000000000000000    0.0000000000000000    0.0510948905109489 La
   0.0000000000000000    0.0000000000000000    0.0583941605839416 La
   0.0000000000000000    0.0000000000000000    0.0656934306569343 La
   0.0000000000000000    0.0000000000000000    0.0729927007299270 La
   0.0000000000000000    0.0000000000000000    0.0802919708029197 La
   0.0000000000000000    0.0000000000000000    0.0875912408759124 La
   0.0000000000000000    0.0000000000000000    0.0948905109489051 La
   0.0000000000000000    0.0000000000000000    0.1021897810218978 La
   0.0000000000000000    0.0000000000000000    0.1094890510948905 La
   0.0000000000000000    0.0000000000000000    0.1167883211678832 La
   0.0000000000000000    0.0000000000000000    0.1240875912408759 La
   0.0000000000000000    0.0000000000000000    0.1313868613138686 La
   0.0000000000000000    0.0000000000000000    0.1386861313868613 La
   0.0000000000000000    0.0000000000000000    0.1459854014598540 La
   0.0000000000000000    0.0000000000000000    0.1532846715328467 La
   0.0000000000000000    0.0000000000000000    0.1605839416058394 La
   0.0000000000000000    0.0000000000000000    0.1678832116788321 La
   0.0000000000000000    0.0000000000000000    0.1751824817518248 La
   0.0000000000000000    0.0000000000000000    0.1824817518248175 La
   0.0000000000000000    0.0000000000000000    0.1897810218978102 La
   0.0000000000000000    0.0000000000000000    0.1970802919708029 La
   0.0000000000000000    0.0000000000000000    0.2043795620437956 La
   0.0000000000000000    0.0000000000000000    0.2116788321167883 La
   0.0000000000000000    0.0000000000000000    0.2189781021897810 La
   0.0000000000000000    0.0000000000000000    0.2262773722627737 La
   0.0000000000000000    0.0000000000000000    0.2335766423357664 La
   0.0000000000000000    0.0000000000000000    0.2408759124087591 La
   0.0000000000000000    0.0000000000000000    0.2481751824817518 La
   0.0000000000000000    0.0000000000000000    0.2554744525547445 La
   0.0000000000000000    0.0000000000000000    0.2627737226277372 La
   0.0000000000000000    0.0000000000000000    0.2700729927007299 La
   0.0000000000000000    0.0000000000000000    0.2773722627737226 La
   0.0000000000000000    0.0000000000000000    0.2846715328467153 La
   0.0000000000000000    0.0000000000000000    0.2919708029197080 La
   0.0000000000000000    0.0000000000000000    0.2992700729927007 La
   0.0000000000000000    0.0000000000000000    0.3065693430656934 La
   0.0000000000000000    0.0000000000000000    0.3138686131386861 La
   0.0000000000000000    0.0000000000000000    0.3211678832116788 La
   0.0000000000000000    0.0000000000000000    0.3284671532846715 La
   0.0000000000000000    0.0000000000000000    0.3357664233576642 La
   0.0000000000000000    0.0000000000000000    0.3430656934306568 La
   0.0000000000000000    0.0000000000000000    0.3503649635036497 La
   0.0000000000000000    0.0000000000000000    0.3576642335766423 La
   0.0000000000000000    0.0000000000000000    0.3649635036496350 La
   0.0000000000000000    0.0000000000000000    0.3722627737226277 La
   0.0000000000000000    0.0000000000000000    0.3795620437956204 La
   0.0000000000000000    0.0000000000000000    0.3868613138686131 La
   0.0000000000000000    0.0000000000000000    0.3941605839416058 La
   0.0000000000000000    0.0000000000000000    0.4014598540145985 La
   0.0000000000000000    0.0000000000000000    0.4087591240875912 La
   0.0000000000000000    0.0000000000000000    0.4160583941605839 La
   0.0000000000000000    0.0000000000000000    0.4233576642335766 La
   0.0000000000000000    0.0000000000000000    0.4306569343065693 La
   0.0000000000000000    0.0000000000000000    0.4379562043795620 La
   0.0000000000000000    0.0000000000000000    0.4452554744525548 La
   0.0000000000000000    0.0000000000000000    0.4525547445255474 La
   0.0000000000000000    0.0000000000000000    0.4598540145985401 La
   0.0000000000000000    0.0000000000000000    0.4671532846715328 La
   0.0000000000000000    0.0000000000000000    0.4744525547445255 La
   0.0000000000000000    0.0000000000000000    0.4817518248175182 La
   0.0000000000000000    0.0000000000000000    0.4890510948905109 La
   0.0000000000000000    0.0000000000000000    0.4963503649635036 La
   0.0000000000000000    0.0000000000000000    0.5036496350364963 La
   0.0000000000000000    0.0000000000000000    0.5109489051094890 La
   0.0000000000000000    0.0000000000000000    0.5182481751824818 La
   0.0000000000000000    0.0000000000000000    0.5255474452554745 La
   0.0000000000000000    0.0000000000000000    0.5328467153284672 La
   0.0000000000000000    0.0000000000000000    0.5401459854014597 La
   0.0000000000000000    0.0000000000000000    0.5474452554744526 La
   0.0000000000000000    0.0000000000000000    0.5547445255474452 La
   0.0000000000000000    0.0000000000000000    0.5620437956204379 La
   0.0000000000000000    0.0000000000000000    0.5693430656934306 La
   0.0000000000000000    0.0000000000000000    0.5766423357664232 La
   0.0000000000000000    0.0000000000000000    0.5839416058394160 La
   0.0000000000000000    0.0000000000000000    0.5912408759124087 La
   0.0000000000000000    0.0000000000000000    0.5985401459854014 La
   0.0000000000000000    0.0000000000000000    0.6058394160583941 La
   0.0000000000000000    0.0000000000000000    0.6131386861313868 La
   0.0000000000000000    0.0000000000000000    0.6204379562043796 La
   0.0000000000000000    0.0000000000000000    0.6277372262773723 La
   0.0000000000000000    0.0000000000000000    0.6350364963503650 La
   0.0000000000000000    0.0000000000000000    0.6423357664233577 La
   0.0000000000000000    0.0000000000000000    0.6496350364963502 La
   0.0000000000000000    0.0000000000000000    0.6569343065693429 La
   0.0000000000000000    0.0000000000000000    0.6642335766423357 La
   0.0000000000000000    0.0000000000000000    0.6715328467153284 La
   0.0000000000000000    0.0000000000000000    0.6788321167883211 La
   0.0000000000000000    0.0000000000000000    0.6861313868613137 La
   0.0000000000000000    0.0000000000000000    0.6934306569343064 La
   0.0000000000000000    0.0000000000000000    0.7007299270072993 La
   0.0000000000000000    0.0000000000000000    0.7080291970802920 La
   0.0000000000000000    0.0000000000000000    0.7153284671532847 La
   0.0000000000000000    0.0000000000000000    0.7226277372262773 La
   0.0000000000000000    0.0000000000000000    0.7299270072992700 La
   0.0000000000000000    0.0000000000000000    0.7372262773722628 La
   0.0000000000000000    0.0000000000000000    0.7445255474452555 La
   0.0000000000000000    0.0000000000000000    0.7518248175182481 La
   0.0000000000000000    0.0000000000000000    0.7591240875912408 La
   0.0000000000000000    0.0000000000000000    0.7664233576642334 La
   0.0000000000000000    0.0000000000000000    0.7737226277372262 La
   0.0000000000000000    0.0000000000000000    0.7810218978102189 La
   0.0000000000000000    0.0000000000000000    0.7883211678832116 La
   0.0000000000000000    0.0000000000000000    0.7956204379562044 La
   0.0000000000000000    0.0000000000000000    0.8029197080291970 La
   0.0000000000000000    0.0000000000000000    0.8102189781021898 La
   0.0000000000000000    0.0000000000000000    0.8175182481751825 La
   0.0000000000000000    0.0000000000000000    0.8248175182481752 La
   0.0000000000000000    0.0000000000000000    0.8321167883211679 La
   0.0000000000000000    0.0000000000000000    0.8394160583941604 La
   0.0000000000000000    0.0000000000000000    0.8467153284671532 La
   0.0000000000000000    0.0000000000000000    0.8540145985401459 La
   0.0000000000000000    0.0000000000000000    0.8613138686131386 La
   0.0000000000000000    0.0000000000000000    0.8686131386861313 La
   0.0000000000000000    0.0000000000000000    0.8759124087591239 La
   0.0000000000000000    0.0000000000000000    0.8832116788321167 La
   0.0000000000000000    0.0000000000000000    0.8905109489051095 La
   0.0000000000000000    0.0000000000000000    0.8978102189781022 La
   0.0000000000000000    0.0000000000000000    0.9051094890510949 La
   0.0000000000000000    0.0000000000000000    0.9124087591240875 La
   0.0000000000000000    0.0000000000000000    0.9197080291970802 La
   0.0000000000000000    0.0000000000000000    0.9270072992700730 La
   0.0000000000000000    0.0000000000000000    0.9343065693430657 La
   0.0000000000000000    0.0000000000000000    0.9416058394160584 La
   0.0000000000000000    0.0000000000000000    0.9489051094890509 La
   0.0000000000000000    0.0000000000000000    0.9562043795620436 La
   0.0000000000000000    0.0000000000000000    0.9635036496350364 La
   0.0000000000000000    0.0000000000000000    0.9708029197080291 La
   0.0000000000000000    0.0000000000000000    0.9781021897810218 La
   0.0000000000000000    0.0000000000000000    0.9854014598540145 La
   0.0000000000000000    0.0000000000000000    0.9927007299270072 La
   0.5000000000000000    0.0000000000000000    0.0000000000000000 H
   0.5000000000000000    0.0000000000000000    0.0072992700729927 H
   0.5000000000000000    0.0000000000000000    0.0145985401459854 H
   0.5000000000000000    0.0000000000000000    0.0218978102189781 H
   0.5000000000000000    0.0000000000000000    0.0291970802919708 H
   0.5000000000000000    0.0000000000000000    0.0364963503649635 H
   0.5000000000000000    0.0000000000000000    0.0437956204379562 H
   0.5000000000000000    0.0000000000000000    0.0510948905109489 H
   0.5000000000000000    0.0000000000000000    0.0583941605839416 H
   0.5000000000000000    0.0000000000000000    0.0656934306569343 H
   0.5000000000000000    0.0000000000000000    0.0729927007299270 H
   0.5000000000000000    0.0000000000000000    0.0802919708029197 H
   0.5000000000000000    0.0000000000000000    0.0875912408759124 H
   0.5000000000000000    0.0000000000000000    0.0948905109489051 H
   0.5000000000000000    0.0000000000000000    0.1021897810218978 H
   0.5000000000000000    0.0000000000000000    0.1094890510948905 H
   0.5000000000000000    0.0000000000000000    0.1167883211678832 H
   0.5000000000000000    0.0000000000000000    0.1240875912408759 H
   0.5000000000000000    0.0000000000000000    0.1313868613138686 H
   0.5000000000000000    0.0000000000000000    0.1386861313868613 H
   0.5000000000000000    0.0000000000000000    0.1459854014598540 H
   0.5000000000000000    0.0000000000000000    0.1532846715328467 H
   0.5000000000000000    0.0000000000000000    0.1605839416058394 H
   0.5000000000000000    0.0000000000000000    0.1678832116788321 H
   0.5000000000000000    0.0000000000000000    0.1751824817518248 H
   0.5000000000000000    0.0000000000000000    0.1824817518248175 H
   0.5000000000000000    0.0000000000000000    0.1897810218978102 H
   0.5000000000000000    0.0000000000000000    0.1970802919708029 H
   0.5000000000000000    0.0000000000000000    0.2043795620437956 H
   0.5000000000000000    0.0000000000000000    0.2116788321167883 H
   0.5000000000000000    0.0000000000000000    0.2189781021897810 H
   0.5000000000000000    0.0000000000000000    0.2262773722627737 H
   0.5000000000000000    0.0000000000000000    0.2335766423357664 H
   0.5000000000000000    0.0000000000000000    0.2408759124087591 H
   0.5000000000000000    0.0000000000000000    0.2481751824817518 H
   0.5000000000000000    0.0000000000000000    0.2554744525547445 H
   0.5000000000000000    0.0000000000000000    0.2627737226277372 H
   0.5000000000000000    0.0000000000000000    0.2700729927007299 H
   0.5000000000000000    0.0000000000000000    0.2773722627737226 H
   0.5000000000000000    0.0000000000000000    0.2846715328467153 H
   0.5000000000000000    0.0000000000000000    0.2919708029197080 H
   0.5000000000000000    0.0000000000000000    0.2992700729927007 H
   0.5000000000000000    0.0000000000000000    0.3065693430656934 H
   0.5000000000000000    0.0000000000000000    0.3138686131386861 H
   0.5000000000000000    0.0000000000000000    0.3211678832116788 H
   0.5000000000000000    0.0000000000000000    0.3284671532846715 H
   0.5000000000000000    0.0000000000000000    0.3357664233576642 H
   0.5000000000000000    0.0000000000000000    0.3430656934306568 H
   0.5000000000000000    0.0000000000000000    0.3503649635036497 H
   0.5000000000000000    0.0000000000000000    0.3576642335766423 H
   0.5000000000000000    0.0000000000000000    0.3649635036496350 H
   0.5000000000000000    0.0000000000000000    0.3722627737226277 H
   0.5000000000000000    0.0000000000000000    0.3795620437956204 H
   0.5000000000000000    0.0000000000000000    0.3868613138686131 H
   0.5000000000000000    0.0000000000000000    0.3941605839416058 H
   0.5000000000000000    0.0000000000000000    0.4014598540145985 H
   0.5000000000000000    0.0000000000000000    0.4087591240875912 H
   0.5000000000000000    0.0000000000000000    0.4160583941605839 H
   0.5000000000000000    0.0000000000000000    0.4233576642335766 H
   0.5000000000000000    0.0000000000000000    0.4306569343065693 H
   0.5000000000000000    0.0000000000000000    0.4379562043795620 H
   0.5000000000000000    0.0000000000000000    0.4452554744525548 H
   0.5000000000000000    0.0000000000000000    0.4525547445255474 H
   0.5000000000000000    0.0000000000000000    0.4598540145985401 H
   0.5000000000000000    0.0000000000000000    0.4671532846715328 H
   0.5000000000000000    0.0000000000000000    0.4744525547445255 H
   0.5000000000000000    0.0000000000000000    0.4817518248175182 H
   0.5000000000000000    0.0000000000000000    0.4890510948905109 H
   0.5000000000000000    0.0000000000000000    0.4963503649635036 H
   0.5000000000000000    0.0000000000000000    0.5036496350364963 H
   0.5000000000000000    0.0000000000000000    0.5109489051094890 H
   0.5000000000000000    0.0000000000000000    0.5182481751824818 H
   0.5000000000000000    0.0000000000000000    0.5255474452554745 H
   0.5000000000000000    0.0000000000000000    0.5328467153284672 H
   0.5000000000000000    0.0000000000000000    0.5401459854014597 H
   0.5000000000000000    0.0000000000000000    0.5474452554744526 H
   0.5000000000000000    0.0000000000000000    0.5547445255474452 H
   0.5000000000000000    0.0000000000000000    0.5620437956204379 H
   0.5000000000000000    0.0000000000000000    0.5693430656934306 H
   0.5000000000000000    0.0000000000000000    0.5766423357664232 H
   0.5000000000000000    0.0000000000000000    0.5839416058394160 H
   0.5000000000000000    0.0000000000000000    0.5912408759124087 H
   0.5000000000000000    0.0000000000000000    0.5985401459854014 H
   0.5000000000000000    0.0000000000000000    0.6058394160583941 H
   0.5000000000000000    0.0000000000000000    0.6131386861313868 H
   0.5000000000000000    0.0000000000000000    0.6204379562043796 H
   0.5000000000000000    0.0000000000000000    0.6277372262773723 H
   0.5000000000000000    0.0000000000000000    0.6350364963503650 H
   0.5000000000000000    0.0000000000000000    0.6423357664233577 H
   0.5000000000000000    0.0000000000000000    0.6496350364963502 H
   0.5000000000000000    0.0000000000000000    0.6569343065693429 H
   0.5000000000000000    0.0000000000000000    0.6642335766423357 H
   0.5000000000000000    0.0000000000000000    0.6715328467153284 H
   0.5000000000000000    0.0000000000000000    0.6788321167883211 H
   0.5000000000000000    0.0000000000000000    0.6861313868613137 H
   0.5000000000000000    0.0000000000000000    0.6934306569343064 H
   0.5000000000000000    0.0000000000000000    0.7007299270072993 H
   0.5000000000000000    0.0000000000000000    0.7080291970802920 H
   0.5000000000000000    0.0000000000000000    0.7153284671532847 H
   0.5000000000000000    0.0000000000000000    0.7226277372262773 H
   0.5000000000000000    0.0000000000000000    0.7299270072992700 H
   0.5000000000000000    0.0000000000000000    0.7372262773722628 H
   0.5000000000000000    0.0000000000000000    0.7445255474452555 H
   0.5000000000000000    0.0000000000000000    0.7518248175182481 H
   0.5000000000000000    0.0000000000000000    0.7591240875912408 H
   0.5000000000000000    0.0000000000000000    0.7664233576642334 H
   0.5000000000000000    0.0000000000000000    0.7737226277372262 H
   0.5000000000000000    0.0000000000000000    0.7810218978102189 H
   0.5000000000000000    0.0000000000000000    0.7883211678832116 H
   0.5000000000000000    0.0000000000000000    0.7956204379562044 H
   0.5000000000000000    0.0000000000000000    0.8029197080291970 H
   0.5000000000000000    0.0000000000000000    0.8102189781021898 H
   0.5000000000000000    0.0000000000000000    0.8175182481751825 H
   0.5000000000000000    0.0000000000000000    0.8248175182481752 H
   0.5000000000000000    0.0000000000000000    0.8321167883211679 H
   0.5000000000000000    0.0000000000000000    0.8394160583941604 H
   0.5000000000000000    0.0000000000000000    0.8467153284671532 H
   0.5000000000000000    0.0000000000000000    0.8540145985401459 H
   0.5000000000000000    0.0000000000000000    0.8613138686131386 H
   0.5000000000000000    0.0000000000000000    0.8686131386861313 H
   0.5000000000000000    0.0000000000000000    0.8759124087591239 H
   0.5000000000000000    0.0000000000000000    0.8832116788321167 H
   0.5000000000000000    0.0000000000000000    0.8905109489051095 H
   0.5000000000000000    0.0000000000000000    0.8978102189781022 H
   0.5000000000000000    0.0000000000000000    0.9051094890510949 H
   0.5000000000000000    0.0000000000000000    0.9124087591240875 H
   0.5000000000000000    0.0000000000000000    0.9197080291970802 H
   0.5000000000000000    0.0000000000000000    0.9270072992700730 H
   0.5000000000000000    0.0000000000000000    0.9343065693430657 H
   0.5000000000000000    0.0000000000000000    0.9416058394160584 H
   0.5000000000000000    0.0000000000000000    0.9489051094890509 H
   0.5000000000000000    0.0000000000000000    0.9562043795620436 H
   0.5000000000000000    0.0000000000000000    0.9635036496350364 H
   0.5000000000000000    0.0000000000000000    0.9708029197080291 H
   0.5000000000000000    0.0000000000000000    0.9781021897810218 H
   0.5000000000000000    0.0000000000000000    0.9854014598540145 H
   0.5000000000000000    0.0000000000000000    0.9927007299270072 H
   0.0000000000000000    0.5000000000000000    0.0000000000000000 H
   0.0000000000000000    0.5000000000000000    0.0072992700729927 H
   0.0000000000000000    0.5000000000000000    0.0145985401459854 H
   0.0000000000000000    0.5000000000000000    0.0218978102189781 H
   0.0000000000000000    0.5000000000000000    0.0291970802919708 H
   0.0000000000000000    0.5000000000000000    0.0364963503649635 H
   0.0000000000000000    0.5000000000000000    0.0437956204379562 H
   0.0000000000000000    0.5000000000000000    0.0510948905109489 H
   0.0000000000000000    0.5000000000000000    0.0583941605839416 H
   0.0000000000000000    0.5000000000000000    0.0656934306569343 H
   0.0000000000000000    0.5000000000000000    0.0729927007299270 H
   0.0000000000000000    0.5000000000000000    0.0802919708029197 H
   0.0000000000000000    0.5000000000000000    0.0875912408759124 H
   0.0000000000000000    0.5000000000000000    0.0948905109489051 H
   0.0000000000000000    0.5000000000000000    0.1021897810218978 H
   0.0000000000000000    0.5000000000000000    0.1094890510948905 H
   0.0000000000000000    0.5000000000000000    0.1167883211678832 H
   0.0000000000000000    0.5000000000000000    0.1240875912408759 H
   0.0000000000000000    0.5000000000000000    0.1313868613138686 H
   0.0000000000000000    0.5000000000000000    0.1386861313868613 H
   0.0000000000000000    0.5000000000000000    0.1459854014598540 H
   0.0000000000000000    0.5000000000000000    0.1532846715328467 H
   0.0000000000000000    0.5000000000000000    0.1605839416058394 H
   0.0000000000000000    0.5000000000000000    0.1678832116788321 H
   0.0000000000000000    0.5000000000000000    0.1751824817518248 H
   0.0000000000000000    0.5000000000000000    0.1824817518248175 H
   0.0000000000000000    0.5000000000000000    0.1897810218978102 H
   0.0000000000000000    0.5000000000000000    0.1970802919708029 H
   0.0000000000000000    0.5000000000000000    0.2043795620437956 H
   0.0000000000000000    0.5000000000000000    0.2116788321167883 H
   0.0000000000000000    0.5000000000000000    0.2189781021897810 H
   0.0000000000000000    0.5000000000000000    0.2262773722627737 H
   0.0000000000000000    0.5000000000000000    0.2335766423357664 H
   0.0000000000000000    0.5000000000000000    0.2408759124087591 H
   0.0000000000000000    0.5000000000000000    0.2481751824817518 H
   0.0000000000000000    0.5000000000000000    0.2554744525547445 H
   0.0000000000000000    0.5000000000000000    0.2627737226277372 H
   0.0000000000000000    0.5000000000000000    0.2700729927007299 H
   0.0000000000000000    0.5000000000000000    0.2773722627737226 H
   0.0000000000000000    0.5000000000000000    0.2846715328467153 H
   0.0000000000000000    0.5000000000000000    0.2919708029197080 H
   0.0000000000000000    0.5000000000000000    0.2992700729927007 H
   0.0000000000000000    0.5000000000000000    0.3065693430656934 H
   0.0000000000000000    0.5000000000000000    0.3138686131386861 H
   0.0000000000000000    0.5000000000000000    0.3211678832116788 H
   0.0000000000000000    0.5000000000000000    0.3284671532846715 H
   0.0000000000000000    0.5000000000000000    0.3357664233576642 H
   0.0000000000000000    0.5000000000000000    0.3430656934306568 H
   0.0000000000000000    0.5000000000000000    0.3503649635036497 H
   0.0000000000000000    0.5000000000000000    0.3576642335766423 H
   0.0000000000000000    0.5000000000000000    0.3649635036496350 H
   0.0000000000000000    0.5000000000000000    0.3722627737226277 H
   0.0000000000000000    0.5000000000000000    0.3795620437956204 H
   0.0000000000000000    0.5000000000000000    0.3868613138686131 H
   0.0000000000000000    0.5000000000000000    0.3941605839416058 H
   0.0000000000000000    0.5000000000000000    0.4014598540145985 H
   0.0000000000000000    0.5000000000000000    0.4087591240875912 H
   0.0000000000000000    0.5000000000000000    0.4160583941605839 H
   0.0000000000000000    0.5000000000000000    0.4233576642335766 H
   0.0000000000000000    0.5000000000000000    0.4306569343065693 H
   0.0000000000000000    0.5000000000000000    0.4379562043795620 H
   0.0000000000000000    0.5000000000000000    0.4452554744525548 H
   0.0000000000000000    0.5000000000000000    0.4525547445255474 H
   0.0000000000000000    0.5000000000000000    0.4598540145985401 H
   0.0000000000000000    0.5000000000000000    0.4671532846715328 H
   0.0000000000000000    0.5000000000000000    0.4744525547445255 H
   0.0000000000000000    0.5000000000000000    0.4817518248175182 H
   0.0000000000000000    0.5000000000000000    0.4890510948905109 H
   0.0000000000000000    0.5000000000000000    0.4963503649635036 H
   0.0000000000000000    0.5000000000000000    0.5036496350364963 H
   0.0000000000000000    0.5000000000000000    0.5109489051094890 H
   0.0000000000000000    0.5000000000000000    0.5182481751824818 H
   0.0000000000000000    0.5000000000000000    0.5255474452554745 H
   0.0000000000000000    0.5000000000000000    0.5328467153284672 H
   0.0000000000000000    0.5000000000000000    0.5401459854014597 H
   0.0000000000000000    0.5000000000000000    0.5474452554744526 H
   0.0000000000000000    0.5000000000000000    0.5547445255474452 H
   0.0000000000000000    0.5000000000000000    0.5620437956204379 H
   0.0000000000000000    0.5000000000000000    0.5693430656934306 H
   0.0000000000000000    0.5000000000000000    0.5766423357664232 H
   0.0000000000000000    0.5000000000000000    0.5839416058394160 H
   0.0000000000000000    0.5000000000000000    0.5912408759124087 H
   0.0000000000000000    0.5000000000000000    0.5985401459854014 H
   0.0000000000000000    0.5000000000000000    0.6058394160583941 H
   0.0000000000000000    0.5000000000000000    0.6131386861313868 H
   0.0000000000000000    0.5000000000000000    0.6204379562043796 H
   0.0000000000000000    0.5000000000000000    0.6277372262773723 H
   0.0000000000000000    0.5000000000000000    0.6350364963503650 H
   0.0000000000000000    0.5000000000000000    0.6423357664233577 H
   0.0000000000000000    0.5000000000000000    0.6496350364963502 H
   0.0000000000000000    0.5000000000000000    0.6569343065693429 H
   0.0000000000000000    0.5000000000000000    0.6642335766423357 H
   0.0000000000000000    0.5000000000000000    0.6715328467153284 H
   0.0000000000000000    0.5000000000000000    0.6788321167883211 H
   0.0000000000000000    0.5000000000000000    0.6861313868613137 H
   0.0000000000000000    0.5000000000000000    0.6934306569343064 H
   0.0000000000000000    0.5000000000000000    0.7007299270072993 H
   0.0000000000000000    0.5000000000000000    0.7080291970802920 H
   0.0000000000000000    0.5000000000000000    0.7153284671532847 H
   0.0000000000000000    0.5000000000000000    0.7226277372262773 H
   0.0000000000000000    0.5000000000000000    0.7299270072992700 H
   0.0000000000000000    0.5000000000000000    0.7372262773722628 H
   0.0000000000000000    0.5000000000000000    0.7445255474452555 H
   0.0000000000000000    0.5000000000000000    0.7518248175182481 H
   0.0000000000000000    0.5000000000000000    0.7591240875912408 H
   0.0000000000000000    0.5000000000000000    0.7664233576642334 H
   0.0000000000000000    0.5000000000000000    0.7737226277372262 H
   0.0000000000000000    0.5000000000000000    0.7810218978102189 H
   0.0000000000000000    0.5000000000000000    0.7883211678832116 H
   0.0000000000000000    0.5000000000000000    0.7956204379562044 H
   0.0000000000000000    0.5000000000000000    0.8029197080291970 H
   0.0000000000000000    0.5000000000000000    0.8102189781021898 H
   0.0000000000000000    0.5000000000000000    0.8175182481751825 H
   0.0000000000000000    0.5000000000000000    0.8248175182481752 H
   0.0000000000000000    0.5000000000000000    0.8321167883211679 H
   0.0000000000000000    0.5000000000000000    0.8394160583941604 H
   0.0000000000000000    0.5000000000000000    0.8467153284671532 H
   0.0000000000000000    0.5000000000000000    0.8540145985401459 H
   0.0000000000000000    0.5000000000000000    0.8613138686131386 H
   0.0000000000000000    0.5000000000000000    0.8686131386861313 H
   0.0000000000000000    0.5000000000000000    0.8759124087591239 H
   0.0000000000000000    0.5000000000000000    0.8832116788321167 H
   0.0000000000000000    0.5000000000000000    0.8905109489051095 H
   0.0000000000000000    0.5000000000000000    0.8978102189781022 H
   0.0000000000000000    0.5000000000000000    0.9051094890510949 H
   0.0000000000000000    0.5000000000000000    0.9124087591240875 H
   0.0000000000000000    0.5000000000000000    0.9197080291970802 H
   0.0000000000000000    0.5000000000000000    0.9270072992700730 H
   0.0000000000000000    0.5000000000000000    0.9343065693430657 H
   0.0000000000000000    0.5000000000000000    0.9416058394160584 H
   0.0000000000000000    0.5000000000000000    0.9489051094890509 H
   0.0000000000000000    0.5000000000000000    0.9562043795620436 H
   0.0000000000000000    0.5000000000000000    0.9635036496350364 H
   0.0000000000000000    0.5000000000000000    0.9708029197080291 H
   0.0000000000000000    0.5000000000000000    0.9781021897810218 H
   0.0000000000000000    0.5000000000000000    0.9854014598540145 H
   0.0000000000000000    0.5000000000000000    0.9927007299270072 H
   0.0000000000000000    0.0000000000000000    0.0036496350364964 H
   0.0000000000000000    0.0000000000000000    0.0109489051094891 H
   0.0000000000000000    0.0000000000000000    0.0182481751824818 H
   0.0000000000000000    0.0000000000000000    0.0255474452554745 H
   0.0000000000000000    0.0000000000000000    0.0328467153284672 H
   0.0000000000000000    0.0000000000000000    0.0401459854014598 H
   0.0000000000000000    0.0000000000000000    0.0474452554744526 H
   0.0000000000000000    0.0000000000000000    0.0547445255474453 H
   0.0000000000000000    0.0000000000000000    0.0620437956204379 H
   0.0000000000000000    0.0000000000000000    0.0693430656934307 H
   0.0000000000000000    0.0000000000000000    0.0766423357664233 H
   0.0000000000000000    0.0000000000000000    0.0839416058394161 H
   0.0000000000000000    0.0000000000000000    0.0912408759124088 H
   0.0000000000000000    0.0000000000000000    0.0985401459854015 H
   0.0000000000000000    0.0000000000000000    0.1058394160583942 H
   0.0000000000000000    0.0000000000000000    0.1131386861313868 H
   0.0000000000000000    0.0000000000000000    0.1204379562043796 H
   0.0000000000000000    0.0000000000000000    0.1277372262773723 H
   0.0000000000000000    0.0000000000000000    0.1350364963503650 H
   0.0000000000000000    0.0000000000000000    0.1423357664233577 H
   0.0000000000000000    0.0000000000000000    0.1496350364963503 H
   0.0000000000000000    0.0000000000000000    0.1569343065693431 H
   0.0000000000000000    0.0000000000000000    0.1642335766423358 H
   0.0000000000000000    0.0000000000000000    0.1715328467153285 H